40
    76    54    14    32   100    37    69    36    27     7    39    52    74    67    93    49    89    73    79    98    45    36    24    71    47    19    32    47    25    37    86     5    37    60    46    28    72    11    52     4
     1     7     6     3    10     7     2     8     1     8     8    10     4     3     1    10    10     8     2    10     6     7     3     3     8    10     1     2     3     2     8     2     3     5     6     9    10     6     4     9
  1145  1091  1222  1290  1047  1011  1058  1313  1351  1076  1163  1004  1141  1061  1259  1306   985  1173  1154  1325  1352  1169  1189  1241  1210  1209  1331  1128  1102   983  1232  1131  1358  1339  1260  1074  1283  1068  1008  1023
